NAME 
ROWS
 N  OBJ
 L  R0      
 L  R1      
 E  R2      
COLUMNS
    MARKER    'MARKER'                 'INTORG'
    I0(3)     OBJ       -489
    I0(3)     R0        -846
    I0(3)     R1        -35
    I0(3)     R2        203
    I1(3)     OBJ       -552
    I1(3)     R0        -20
    I1(3)     R1        -925
    I1(3)     R2        700
    I2(3)     OBJ       -798
    I2(3)     R0        -623
    I2(3)     R1        -264
    I2(3)     R2        369
    I3(3)     OBJ       -893
    I3(3)     R0        -644
    I3(3)     R1        -657
    I3(3)     R2        466
    I4(3)     OBJ       -63
    I4(3)     R0        -913
    I4(3)     R1        -568
    I4(3)     R2        356
    I5(3)     OBJ       -975
    I5(3)     R0        -685
    I5(3)     R1        -176
    I5(3)     R2        937
    I6(3)     OBJ       -799
    I6(3)     R0        -618
    I6(3)     R1        -341
    I6(3)     R2        642
    I7(3)     OBJ       -378
    I7(3)     R0        -711
    I7(3)     R1        -186
    I7(3)     R2        696
    I8(3)     OBJ       -131
    I8(3)     R0        -62
    I8(3)     R1        -886
    I8(3)     R2        122
    I9(3)     OBJ       -132
    I9(3)     R0        -749
    I9(3)     R1        -403
    I9(3)     R2        528
    I10(3)    OBJ       -607
    I10(3)    R0        -842
    I10(3)    R1        -935
    I10(3)    R2        98
    I11(3)    OBJ       -895
    I11(3)    R0        -668
    I11(3)    R1        -728
    I11(3)    R2        57
    I12(3)    OBJ       -123
    I12(3)    R0        -644
    I12(3)    R1        -70
    I12(3)    R2        255
    I13(3)    OBJ       -178
    I13(3)    R0        -965
    I13(3)    R1        -579
    I13(3)    R2        168
    I14(3)    OBJ       -455
    I14(3)    R0        -846
    I14(3)    R1        -693
    I14(3)    R2        635
    I15(3)    OBJ       -117
    I15(3)    R0        -98
    I15(3)    R1        -916
    I15(3)    R2        948
    I16(3)    OBJ       -253
    I16(3)    R0        -81
    I16(3)    R1        -676
    I16(3)    R2        84
    I17(3)    OBJ       -167
    I17(3)    R0        -99
    I17(3)    R1        -774
    I17(3)    R2        311
    I18(3)    OBJ       -644
    I18(3)    R0        -265
    I18(3)    R1        -14
    I18(3)    R2        721
    I19(3)    OBJ       -375
    I19(3)    R0        -725
    I19(3)    R1        -941
    I19(3)    R2        97
    I20(3)    OBJ       -131
    I20(3)    R0        -474
    I20(3)    R1        -498
    I20(3)    R2        252
    I21(3)    OBJ       -461
    I21(3)    R0        -395
    I21(3)    R1        -487
    I21(3)    R2        218
    I22(3)    OBJ       -285
    I22(3)    R0        -185
    I22(3)    R1        -336
    I22(3)    R2        584
    I23(3)    OBJ       -972
    I23(3)    R0        -758
    I23(3)    R1        -683
    I23(3)    R2        587
    I24(3)    OBJ       -498
    I24(3)    R0        -367
    I24(3)    R1        -245
    I24(3)    R2        901
    I25(3)    OBJ       -956
    I25(3)    R0        -683
    I25(3)    R1        -702
    I25(3)    R2        829
    I26(3)    OBJ       -597
    I26(3)    R0        -714
    I26(3)    R1        -366
    I26(3)    R2        289
    I27(3)    OBJ       -397
    I27(3)    R0        -964
    I27(3)    R1        -959
    I27(3)    R2        266
    I28(3)    OBJ       -531
    I28(3)    R0        -79
    I28(3)    R1        -666
    I28(3)    R2        787
    I29(3)    OBJ       -71
    I29(3)    R0        -245
    I29(3)    R1        -445
    I29(3)    R2        955
    I30(1)    R2        1
    MARKER    'MARKER'                 'INTEND'
RHS
    RHS1      R0        -10558
    RHS1      R1        -10354
    RHS1      R2        7030
BOUNDS
 UP BND1      I0(3)     1
 UP BND1      I1(3)     1
 UP BND1      I2(3)     1
 UP BND1      I3(3)     1
 UP BND1      I4(3)     1
 UP BND1      I5(3)     1
 UP BND1      I6(3)     1
 UP BND1      I7(3)     1
 UP BND1      I8(3)     1
 UP BND1      I9(3)     1
 UP BND1      I10(3)    1
 UP BND1      I11(3)    1
 UP BND1      I12(3)    1
 UP BND1      I13(3)    1
 UP BND1      I14(3)    1
 UP BND1      I15(3)    1
 UP BND1      I16(3)    1
 UP BND1      I17(3)    1
 UP BND1      I18(3)    1
 UP BND1      I19(3)    1
 UP BND1      I20(3)    1
 UP BND1      I21(3)    1
 UP BND1      I22(3)    1
 UP BND1      I23(3)    1
 UP BND1      I24(3)    1
 UP BND1      I25(3)    1
 UP BND1      I26(3)    1
 UP BND1      I27(3)    1
 UP BND1      I28(3)    1
 UP BND1      I29(3)    1
 LI BND1      I30(1)    0
ENDATA
